
        $ From http://www.csplib.org/Problems/prob009/data/helmut.pdf
        $ Problem number 199
        $ Sequence length : 25
        language ESSENCE' 1.0
        letting sizemaster be 607
        letting sizes be sequence(6,8,10,13,19,25,32,37,49,54,58,76,84,91,92,100,107,128,156,185,196,205,206,216,246)
        